21° run output:
{
    "Function": "kroA500.tsp",
    "Problem dimension": [
        298,
        443,
        259,
        406,
        427,
        107,
        322,
        491,
        338,
        452,
        419,
        226,
        70,
        229,
        278,
        450,
        146,
        454,
        131,
        26,
        169,
        361,
        168,
        90,
        19,
        50,
        47,
        205,
        10,
        43,
        68,
        279,
        0,
        314,
        210,
        235,
        236,
        432,
        16,
        163,
        36,
        386,
        489,
        249,
        461,
        89,
        423,
        458,
        466,
        202,
        81,
        366,
        299,
        221,
        72,
        307,
        288,
        126,
        159,
        403,
        317,
        7,
        402,
        190,
        144,
        256,
        66,
        320,
        395,
        270,
        497,
        401,
        301,
        429,
        253,
        496,
        177,
        203,
        330,
        480,
        73,
        357,
        470,
        449,
        336,
        33,
        328,
        124,
        91,
        171,
        356,
        340,
        127,
        442,
        303,
        80,
        375,
        125,
        95,
        192,
        92,
        153,
        379,
        220,
        273,
        17,
        398,
        188,
        25,
        118,
        39,
        425,
        250,
        49,
        147,
        448,
        243,
        9,
        483,
        216,
        348,
        208,
        471,
        225,
        359,
        60,
        306,
        410,
        465,
        414,
        55,
        368,
        290,
        258,
        445,
        295,
        416,
        161,
        424,
        129,
        276,
        223,
        130,
        312,
        339,
        352,
        272,
        334,
        376,
        268,
        310,
        170,
        255,
        145,
        134,
        88,
        179,
        495,
        152,
        332,
        115,
        487,
        286,
        77,
        324,
        27,
        343,
        285,
        120,
        84,
        247,
        219,
        42,
        434,
        14,
        296,
        499,
        447,
        211,
        422,
        265,
        175,
        367,
        369,
        40,
        137,
        391,
        292,
        284,
        198,
        457,
        3,
        48,
        364,
        44,
        305,
        371,
        384,
        32,
        78,
        360,
        142,
        233,
        431,
        488,
        309,
        140,
        57,
        462,
        102,
        238,
        106,
        412,
        83,
        479,
        12,
        53,
        38,
        138,
        123,
        482,
        117,
        289,
        426,
        430,
        85,
        316,
        370,
        156,
        64,
        446,
        325,
        193,
        287,
        327,
        291,
        28,
        329,
        498,
        486,
        407,
        148,
        377,
        300,
        481,
        436,
        342,
        337,
        45,
        23,
        252,
        167,
        93,
        254,
        392,
        372,
        4,
        492,
        113,
        206,
        244,
        2,
        1,
        56,
        245,
        158,
        173,
        415,
        58,
        333,
        358,
        411,
        260,
        318,
        437,
        143,
        385,
        174,
        100,
        476,
        381,
        262,
        387,
        227,
        378,
        383,
        405,
        404,
        114,
        116,
        108,
        267,
        150,
        228,
        184,
        135,
        459,
        232,
        176,
        397,
        157,
        162,
        319,
        18,
        151,
        304,
        351,
        6,
        52,
        109,
        34,
        5,
        166,
        331,
        484,
        380,
        341,
        347,
        141,
        464,
        204,
        46,
        350,
        154,
        231,
        155,
        283,
        394,
        31,
        105,
        241,
        421,
        388,
        248,
        110,
        104,
        354,
        477,
        94,
        353,
        178,
        485,
        213,
        75,
        149,
        271,
        257,
        435,
        222,
        41,
        281,
        37,
        22,
        230,
        420,
        473,
        293,
        201,
        362,
        122,
        133,
        490,
        453,
        65,
        24,
        326,
        8,
        335,
        365,
        363,
        242,
        468,
        418,
        86,
        200,
        373,
        189,
        400,
        13,
        191,
        96,
        21,
        475,
        374,
        97,
        181,
        196,
        237,
        444,
        315,
        98,
        197,
        321,
        408,
        277,
        82,
        297,
        433,
        234,
        390,
        182,
        263,
        99,
        20,
        441,
        409,
        396,
        280,
        160,
        224,
        349,
        209,
        472,
        428,
        239,
        111,
        323,
        469,
        439,
        440,
        282,
        63,
        413,
        478,
        344,
        246,
        474,
        264,
        199,
        71,
        214,
        313,
        215,
        451,
        103,
        51,
        30,
        172,
        74,
        186,
        389,
        456,
        59,
        67,
        119,
        69,
        460,
        112,
        240,
        121,
        165,
        180,
        79,
        61,
        136,
        194,
        417,
        308,
        266,
        261,
        101,
        87,
        494,
        218,
        185,
        438,
        11,
        187,
        346,
        311,
        345,
        467,
        269,
        382,
        139,
        294,
        132,
        195,
        463,
        355,
        393,
        183,
        207,
        15,
        251,
        29,
        54,
        164,
        217,
        455,
        128,
        274,
        302,
        493,
        62,
        212,
        399,
        76,
        35,
        275
    ],
    "Global Optimum": 0,
    "Algorithm": "Genetic algorithm",
    "Parameters": {
        "population": 30,
        "offspring": 30,
        "mutation probability": 0.002,
        "crossover probability": 0.9
    },
    "Fitness": 521080,
    "Solution": [
        298,
        443,
        259,
        406,
        427,
        107,
        322,
        491,
        338,
        452,
        419,
        226,
        70,
        229,
        278,
        450,
        146,
        454,
        131,
        26,
        169,
        361,
        168,
        90,
        19,
        50,
        47,
        205,
        10,
        43,
        68,
        279,
        0,
        314,
        210,
        235,
        236,
        432,
        16,
        163,
        36,
        386,
        489,
        249,
        461,
        89,
        423,
        458,
        466,
        202,
        81,
        366,
        299,
        221,
        72,
        307,
        288,
        126,
        159,
        403,
        317,
        7,
        402,
        190,
        144,
        256,
        66,
        320,
        395,
        270,
        497,
        401,
        301,
        429,
        253,
        496,
        177,
        203,
        330,
        480,
        73,
        357,
        470,
        449,
        336,
        33,
        328,
        124,
        91,
        171,
        356,
        340,
        127,
        442,
        303,
        80,
        375,
        125,
        95,
        192,
        92,
        153,
        379,
        220,
        273,
        17,
        398,
        188,
        25,
        118,
        39,
        425,
        250,
        49,
        147,
        448,
        243,
        9,
        483,
        216,
        348,
        208,
        471,
        225,
        359,
        60,
        306,
        410,
        465,
        414,
        55,
        368,
        290,
        258,
        445,
        295,
        416,
        161,
        424,
        129,
        276,
        223,
        130,
        312,
        339,
        352,
        272,
        334,
        376,
        268,
        310,
        170,
        255,
        145,
        134,
        88,
        179,
        495,
        152,
        332,
        115,
        487,
        286,
        77,
        324,
        27,
        343,
        285,
        120,
        84,
        247,
        219,
        42,
        434,
        14,
        296,
        499,
        447,
        211,
        422,
        265,
        175,
        367,
        369,
        40,
        137,
        391,
        292,
        284,
        198,
        457,
        3,
        48,
        364,
        44,
        305,
        371,
        384,
        32,
        78,
        360,
        142,
        233,
        431,
        488,
        309,
        140,
        57,
        462,
        102,
        238,
        106,
        412,
        83,
        479,
        12,
        53,
        38,
        138,
        123,
        482,
        117,
        289,
        426,
        430,
        85,
        316,
        370,
        156,
        64,
        446,
        325,
        193,
        287,
        327,
        291,
        28,
        329,
        498,
        486,
        407,
        148,
        377,
        300,
        481,
        436,
        342,
        337,
        45,
        23,
        252,
        167,
        93,
        254,
        392,
        372,
        4,
        492,
        113,
        206,
        244,
        2,
        1,
        56,
        245,
        158,
        173,
        415,
        58,
        333,
        358,
        411,
        260,
        318,
        437,
        143,
        385,
        174,
        100,
        476,
        381,
        262,
        387,
        227,
        378,
        383,
        405,
        404,
        114,
        116,
        108,
        267,
        150,
        228,
        184,
        135,
        459,
        232,
        176,
        397,
        157,
        162,
        319,
        18,
        151,
        304,
        351,
        6,
        52,
        109,
        34,
        5,
        166,
        331,
        484,
        380,
        341,
        347,
        141,
        464,
        204,
        46,
        350,
        154,
        231,
        155,
        283,
        394,
        31,
        105,
        241,
        421,
        388,
        248,
        110,
        104,
        354,
        477,
        94,
        353,
        178,
        485,
        213,
        75,
        149,
        271,
        257,
        435,
        222,
        41,
        281,
        37,
        22,
        230,
        420,
        473,
        293,
        201,
        362,
        122,
        133,
        490,
        453,
        65,
        24,
        326,
        8,
        335,
        365,
        363,
        242,
        468,
        418,
        86,
        200,
        373,
        189,
        400,
        13,
        191,
        96,
        21,
        475,
        374,
        97,
        181,
        196,
        237,
        444,
        315,
        98,
        197,
        321,
        408,
        277,
        82,
        297,
        433,
        234,
        390,
        182,
        263,
        99,
        20,
        441,
        409,
        396,
        280,
        160,
        224,
        349,
        209,
        472,
        428,
        239,
        111,
        323,
        469,
        439,
        440,
        282,
        63,
        413,
        478,
        344,
        246,
        474,
        264,
        199,
        71,
        214,
        313,
        215,
        451,
        103,
        51,
        30,
        172,
        74,
        186,
        389,
        456,
        59,
        67,
        119,
        69,
        460,
        112,
        240,
        121,
        165,
        180,
        79,
        61,
        136,
        194,
        417,
        308,
        266,
        261,
        101,
        87,
        494,
        218,
        185,
        438,
        11,
        187,
        346,
        311,
        345,
        467,
        269,
        382,
        139,
        294,
        132,
        195,
        463,
        355,
        393,
        183,
        207,
        15,
        251,
        29,
        54,
        164,
        217,
        455,
        128,
        274,
        302,
        493,
        62,
        212,
        399,
        76,
        35,
        275
    ],
    "Nb of functions evaluations": 400020,
    "Computational time in seconds": 1772.370502948761,
    "Stopping criterion in evaluations": 400000
}